NAME: tsp20-23
TYPE: TSP
DIMENSION: 20
EDGE_WEIGHT_TYPE: EUC_2D
NODE_COORD_SECTION
0 81 49
1 57 16
2 53 79
3 89 61
4 9 7
5 2 44
6 73 69
7 93 50
8 15 98
9 68 64
10 82 72
11 15 17
12 3 73
13 8 90
14 82 77
15 78 44
16 50 38
17 7 67
18 22 47
19 70 9
EOF